5755.46
0 1 6 14 2 5 9 3 12 11 8 10 4 7 13 0
0 16 17 15 21 22 20 26 19 23 24 37 34 27 0
0 42 38 43 39 28 31 30 32 29 25 51 0
0 40 47 41 33 35 36 57 0
0 73 67 44 49 48 50 45 46 101 110 100 54 56 61 0
0 77 76 80 70 68 71 69 66 64 55 60 59 0
0 65 74 78 81 91 94 102 99 98 62 0
0 79 84 82 83 104 103 106 72 0
0 95 93 86 88 87 90 89 92 108 109 0
0 124 122 97 96 0
0 115 125 119 113 114 116 111 107 112 105 0
0 123 120 117 121 126 118 134 131 130 132 129 63 0
0 75 85 140 144 128 127 133 135 0
0 147 142 138 139 137 149 145 146 143 141 150 58 52 0
0 18 136 53 148 0
